c p8 --> 40
c p10 --> 41
c p3@v2 --> 37
c p3@v1 --> 36
c p7 --> 34
c p11 --> 33
c p4@v4 --> 32
c p4@v3 --> 31
c p4@v2 --> 30
c p1@v1 --> 13
c p9 --> 6
c p12@v4 --> 11
c p12@v3 --> 10
c p12@v0 --> 7
c p1@v0 --> 12
c p4@v1 --> 29
c p12@v1 --> 8
c p0 --> 5
c p3@v0 --> 35
c p13@v2 --> 4
c p13@v1 --> 3
c p5@v4 --> 24
c p14 --> 1
c p1@v7 --> 19
c p1@v2 --> 14
c p1@v3 --> 15
c @top --> 42
c p12@v2 --> 9
c p4@v0 --> 28
c p1@v4 --> 16
c p1@v5 --> 17
c p13@v0 --> 2
c p1@v6 --> 18
c p5@v1 --> 21
c p5@v0 --> 20
c p3@v3 --> 38
c p5@v2 --> 22
c p5@v3 --> 23
c p5@v5 --> 25
c p6 --> 26
c p3@v4 --> 39
c p2 --> 27
p cnf 42 131
-13 27 -32 0
-5 -4 0
-13 -24 0
-14 -28 0
-5 -12 0
-14 -5 0
-19 -27 -21 0
-22 -12 0
-19 -37 0
-13 27 -28 0
-13 -37 0
-23 -5 0
5 -18 0
-24 -12 0
5 -17 0
-37 -12 0
5 -15 0
-19 27 -32 0
27 -32 -12 0
-14 -20 0
-5 -3 0
-19 27 -28 0
-19 -5 0
-14 -21 0
27 -28 -12 0
-22 -5 0
5 -25 0
-5 -36 0
-5 -37 0
-5 -35 0
-24 -14 -27 0
-24 -5 0
-13 -5 0
-23 -12 0
-27 -17 0
-13 27 -21 0
-19 -22 0
-19 -23 0
-19 -24 0
5 -39 0
-27 -21 -12 0
-5 -20 0
5 -38 0
-16 5 0
-14 -32 0
-5 -21 0
-13 -23 0
-13 -22 0
2 3 4 0
-2 -3 0
-2 -4 0
-3 -4 0
7 8 9 10 11 0
-7 -8 0
-7 -9 0
-7 -10 0
-7 -11 0
-8 -9 0
-8 -10 0
-8 -11 0
-9 -10 0
-9 -11 0
-10 -11 0
12 13 14 15 16 17 18 19 0
-12 -13 0
-12 -14 0
-12 -15 0
-12 -16 0
-12 -17 0
-12 -18 0
-12 -19 0
-13 -14 0
-13 -15 0
-13 -16 0
-13 -17 0
-13 -18 0
-13 -19 0
-14 -15 0
-14 -16 0
-14 -17 0
-14 -18 0
-14 -19 0
-15 -16 0
-15 -17 0
-15 -18 0
-15 -19 0
-16 -17 0
-16 -18 0
-16 -19 0
-17 -18 0
-17 -19 0
-18 -19 0
20 21 22 23 24 25 0
-20 -21 0
-20 -22 0
-20 -23 0
-20 -24 0
-20 -25 0
-21 -22 0
-21 -23 0
-21 -24 0
-21 -25 0
-22 -23 0
-22 -24 0
-22 -25 0
-23 -24 0
-23 -25 0
-24 -25 0
28 29 30 31 32 0
-28 -29 0
-28 -30 0
-28 -31 0
-28 -32 0
-29 -30 0
-29 -31 0
-29 -32 0
-30 -31 0
-30 -32 0
-31 -32 0
35 36 37 38 39 0
-35 -36 0
-35 -37 0
-35 -38 0
-35 -39 0
-36 -37 0
-36 -38 0
-36 -39 0
-37 -38 0
-37 -39 0
-38 -39 0
42 -42 0
